Solver command line: ['C:\\gurobi950\\win64\\bin\\gurobi.bat']

Set parameter Username
Academic license - for non-commercial use only - expires 2023-07-07
Read LP format model from file C:\Users\steffejb\AppData\Local\Temp\tmp2qub24yb.pyomo.lp
Reading time = 0.78 seconds
x239806: 107720 rows, 239806 columns, 1071021 nonzeros
Gurobi Optimizer version 9.5.0 build v9.5.0rc5 (win64)
Thread count: 4 physical cores, 8 logical processors, using up to 8 threads
Optimize a model with 107720 rows, 239806 columns and 1071021 nonzeros
Model fingerprint: 0xf791999c
Variable types: 239071 continuous, 735 integer (735 binary)
Coefficient statistics:
  Matrix range     [1e+00, 1e+07]
  Objective range  [3e-01, 3e-01]
  Bounds range     [1e+00, 1e+00]
  RHS range        [5e-05, 4e+08]
Presolve removed 83704 rows and 140287 columns
Presolve time: 2.23s
Presolved: 24016 rows, 99519 columns, 350242 nonzeros
Variable types: 99191 continuous, 328 integer (328 binary)

Deterministic concurrent LP optimizer: primal and dual simplex
Showing first log only...

Concurrent spin time: 0.00s

Solved with dual simplex

Root relaxation: objective 1.110815e+11, 38612 iterations, 2.32 seconds (2.51 work units)
Total elapsed time = 5.03s

    Nodes    |    Current Node    |     Objective Bounds      |     Work
 Expl Unexpl |  Obj  Depth IntInf | Incumbent    BestBd   Gap | It/Node Time

     0     0 1.1108e+11    0   34          - 1.1108e+11      -     -    5s
H    0     0                    1.110848e+11 1.1108e+11  0.00%     -    5s

Explored 1 nodes (38612 simplex iterations) in 5.42 seconds (5.90 work units)
Thread count was 8 (of 8 available processors)

Solution count 1: 1.11085e+11 

Optimal solution found (tolerance 1.00e-04)
Warning: max constraint violation (5.7144e-05) exceeds tolerance
Best objective 1.110847606299e+11, best bound 1.110815020313e+11, gap 0.0029%

